
  32    4
  10   10   10   10

   0   0   0   0   0   3 2 14 31 
   4   1   0   1   1   1 3 
   6   0   1   1   5   2 22 4 
   6   0   5   3   3   1 5 
   5   1   8   0   6   3 30 11 6 
   5   1   0   3   4   1 7 
   2   4   7   5   0   3 29 12 8 
   8   0   4   5   5   2 13 9 
   6   6   5   4   0   3 20 17 10 
   6   4   3   6   0   2 28 15 
   7   6   2   0   3   2 17 16 
   9   9   2   3   0   1 13 
   6   0   6   6   5   2 20 18 
   3   2   4   7   0   2 20 18 
  10   5   4   6   0   1 16 
   8   6   3   0   2   1 18 
   9   5   0   4   6   1 18 
   9   3   0   9   6   1 19 
   3   7   0   3   6   1 21 
   1   0   5   6   5   1 21 
   8   3   0   6   5   1 23 
  10   2   5   3   0   1 23 
   5   0   4   3   4   1 24 
   9   2   5   5   0   2 27 25 
   1   4   0   2   1   1 26 
   7   0   1   3   2   1 32
   8   3   0   3   6   1 32
   8   0   5   1   3   1 32
  10   0   1   2   3   1 32
   5   0   4   4   2   1 32
   3   6   0   4   5   1 32
   0   0   0   0   0   0 
